NAME 
OBJSENSE MAX
ROWS
 N  OBJ
 L  packing[0]
 L  packing[1]
 L  packing[2]
 L  packing[3]
 L  packing[4]
 L  packing[5]
 L  packing[6]
 L  packing[7]
 L  packing[8]
 L  packing[9]
 L  packing[10]
 L  packing[11]
 L  packing[12]
 L  packing[13]
 L  packing[14]
 L  packing[15]
 L  packing[16]
 L  packing[17]
 L  packing[18]
 L  packing[19]
 L  packing[20]
 L  packing[21]
 L  packing[22]
 L  packing[23]
 L  packing[24]
 L  packing[25]
 L  packing[26]
 L  packing[27]
 L  packing[28]
 L  packing[29]
 L  packing[30]
 L  packing[31]
 L  packing[32]
 L  packing[33]
 L  packing[34]
 L  packing[35]
 L  packing[36]
 L  packing[37]
 L  packing[38]
 L  packing[39]
 L  packing[40]
 L  packing[41]
 L  packing[42]
 L  packing[43]
 L  packing[44]
 L  packing[45]
 L  packing[46]
 L  packing[47]
 L  packing[48]
 L  packing[49]
 L  R56     
COLUMNS
    MARKER    'MARKER'                 'INTORG'
    x[1]      OBJ       134
    x[1]      packing[0]  192
    x[1]      packing[1]  125
    x[1]      packing[2]  112
    x[1]      packing[3]  134
    x[1]      packing[5]  93
    x[1]      packing[6]  26
    x[1]      packing[7]  122
    x[1]      packing[8]  181
    x[1]      packing[12]  80
    x[1]      packing[14]  160
    x[1]      packing[16]  49
    x[1]      packing[18]  51
    x[1]      packing[19]  52
    x[1]      packing[21]  176
    x[1]      packing[23]  179
    x[1]      packing[24]  132
    x[1]      packing[25]  187
    x[1]      packing[26]  138
    x[1]      packing[27]  73
    x[1]      packing[28]  13
    x[1]      packing[30]  97
    x[1]      packing[32]  71
    x[1]      packing[33]  27
    x[1]      packing[35]  102
    x[1]      packing[37]  176
    x[1]      packing[39]  58
    x[1]      packing[40]  71
    x[1]      packing[41]  15
    x[1]      packing[42]  10
    x[1]      packing[46]  13
    x[1]      packing[47]  23
    x[1]      packing[48]  168
    x[1]      packing[49]  117
    x[2]      OBJ       102
    x[2]      packing[0]  119
    x[2]      packing[1]  96
    x[2]      packing[2]  144
    x[2]      packing[4]  191
    x[2]      packing[5]  36
    x[2]      packing[6]  172
    x[2]      packing[7]  37
    x[2]      packing[9]  78
    x[2]      packing[10]  122
    x[2]      packing[11]  29
    x[2]      packing[12]  167
    x[2]      packing[13]  184
    x[2]      packing[15]  10
    x[2]      packing[16]  50
    x[2]      packing[17]  118
    x[2]      packing[18]  137
    x[2]      packing[19]  189
    x[2]      packing[21]  182
    x[2]      packing[22]  144
    x[2]      packing[23]  20
    x[2]      packing[24]  60
    x[2]      packing[25]  99
    x[2]      packing[27]  78
    x[2]      packing[28]  144
    x[2]      packing[29]  113
    x[2]      packing[30]  66
    x[2]      packing[31]  57
    x[2]      packing[32]  97
    x[2]      packing[33]  48
    x[2]      packing[35]  108
    x[2]      packing[37]  6
    x[2]      packing[39]  70
    x[2]      packing[41]  198
    x[2]      packing[43]  94
    x[2]      packing[44]  22
    x[2]      packing[45]  52
    x[2]      packing[46]  101
    x[2]      packing[47]  60
    x[2]      packing[49]  103
    x[3]      OBJ       72
    x[3]      packing[0]  69
    x[3]      packing[1]  145
    x[3]      packing[2]  124
    x[3]      packing[4]  60
    x[3]      packing[6]  83
    x[3]      packing[7]  39
    x[3]      packing[9]  109
    x[3]      packing[11]  127
    x[3]      packing[12]  14
    x[3]      packing[13]  139
    x[3]      packing[15]  94
    x[3]      packing[16]  92
    x[3]      packing[18]  25
    x[3]      packing[19]  97
    x[3]      packing[20]  131
    x[3]      packing[21]  84
    x[3]      packing[23]  18
    x[3]      packing[24]  188
    x[3]      packing[25]  162
    x[3]      packing[26]  135
    x[3]      packing[27]  20
    x[3]      packing[28]  52
    x[3]      packing[29]  2
    x[3]      packing[30]  177
    x[3]      packing[32]  189
    x[3]      packing[34]  66
    x[3]      packing[35]  5
    x[3]      packing[36]  30
    x[3]      packing[38]  153
    x[3]      packing[40]  96
    x[3]      packing[41]  193
    x[3]      packing[42]  109
    x[3]      packing[43]  77
    x[3]      packing[47]  172
    x[3]      packing[48]  197
    x[3]      packing[49]  108
    x[4]      OBJ       163
    x[4]      packing[0]  53
    x[4]      packing[1]  132
    x[4]      packing[2]  180
    x[4]      packing[3]  195
    x[4]      packing[4]  74
    x[4]      packing[7]  5
    x[4]      packing[8]  60
    x[4]      packing[9]  27
    x[4]      packing[10]  125
    x[4]      packing[12]  83
    x[4]      packing[14]  177
    x[4]      packing[15]  121
    x[4]      packing[17]  155
    x[4]      packing[18]  91
    x[4]      packing[19]  36
    x[4]      packing[20]  139
    x[4]      packing[21]  159
    x[4]      packing[22]  154
    x[4]      packing[23]  42
    x[4]      packing[24]  3
    x[4]      packing[25]  138
    x[4]      packing[28]  19
    x[4]      packing[29]  35
    x[4]      packing[30]  141
    x[4]      packing[31]  17
    x[4]      packing[32]  45
    x[4]      packing[33]  60
    x[4]      packing[34]  178
    x[4]      packing[35]  134
    x[4]      packing[36]  168
    x[4]      packing[38]  78
    x[4]      packing[39]  150
    x[4]      packing[40]  85
    x[4]      packing[41]  108
    x[4]      packing[44]  117
    x[4]      packing[45]  9
    x[4]      packing[46]  193
    x[4]      packing[47]  31
    x[4]      packing[48]  150
    x[4]      packing[49]  163
    x[5]      OBJ       51
    x[5]      packing[1]  192
    x[5]      packing[3]  24
    x[5]      packing[4]  21
    x[5]      packing[5]  86
    x[5]      packing[6]  30
    x[5]      packing[7]  48
    x[5]      packing[8]  114
    x[5]      packing[10]  83
    x[5]      packing[11]  94
    x[5]      packing[12]  169
    x[5]      packing[13]  19
    x[5]      packing[14]  34
    x[5]      packing[15]  121
    x[5]      packing[18]  43
    x[5]      packing[19]  151
    x[5]      packing[20]  22
    x[5]      packing[21]  130
    x[5]      packing[22]  180
    x[5]      packing[23]  142
    x[5]      packing[24]  157
    x[5]      packing[25]  156
    x[5]      packing[26]  42
    x[5]      packing[29]  17
    x[5]      packing[31]  7
    x[5]      packing[32]  42
    x[5]      packing[33]  44
    x[5]      packing[34]  139
    x[5]      packing[35]  181
    x[5]      packing[36]  83
    x[5]      packing[37]  17
    x[5]      packing[38]  146
    x[5]      packing[41]  62
    x[5]      packing[42]  128
    x[5]      packing[43]  42
    x[5]      packing[44]  60
    x[5]      packing[45]  60
    x[5]      packing[46]  144
    x[5]      packing[47]  142
    x[5]      packing[48]  120
    x[5]      packing[49]  153
    x[6]      OBJ       45
    x[6]      packing[0]  172
    x[6]      packing[3]  18
    x[6]      packing[4]  74
    x[6]      packing[6]  11
    x[6]      packing[7]  73
    x[6]      packing[8]  1
    x[6]      packing[9]  149
    x[6]      packing[10]  185
    x[6]      packing[11]  20
    x[6]      packing[13]  166
    x[6]      packing[14]  73
    x[6]      packing[15]  80
    x[6]      packing[16]  34
    x[6]      packing[17]  67
    x[6]      packing[18]  9
    x[6]      packing[19]  63
    x[6]      packing[20]  143
    x[6]      packing[21]  5
    x[6]      packing[22]  52
    x[6]      packing[23]  29
    x[6]      packing[24]  34
    x[6]      packing[25]  33
    x[6]      packing[26]  45
    x[6]      packing[27]  126
    x[6]      packing[28]  36
    x[6]      packing[29]  53
    x[6]      packing[30]  91
    x[6]      packing[31]  111
    x[6]      packing[32]  11
    x[6]      packing[33]  71
    x[6]      packing[34]  82
    x[6]      packing[35]  145
    x[6]      packing[36]  15
    x[6]      packing[38]  100
    x[6]      packing[39]  2
    x[6]      packing[40]  111
    x[6]      packing[42]  125
    x[6]      packing[43]  4
    x[6]      packing[44]  133
    x[6]      packing[45]  158
    x[6]      packing[46]  8
    x[6]      packing[47]  53
    x[6]      packing[48]  115
    x[6]      packing[49]  91
    x[7]      OBJ       135
    x[7]      packing[0]  190
    x[7]      packing[1]  79
    x[7]      packing[2]  189
    x[7]      packing[5]  1
    x[7]      packing[6]  82
    x[7]      packing[8]  95
    x[7]      packing[9]  103
    x[7]      packing[10]  68
    x[7]      packing[12]  26
    x[7]      packing[14]  11
    x[7]      packing[15]  26
    x[7]      packing[19]  168
    x[7]      packing[20]  93
    x[7]      packing[21]  22
    x[7]      packing[22]  1
    x[7]      packing[23]  113
    x[7]      packing[25]  116
    x[7]      packing[26]  49
    x[7]      packing[27]  49
    x[7]      packing[29]  57
    x[7]      packing[30]  197
    x[7]      packing[31]  107
    x[7]      packing[34]  194
    x[7]      packing[35]  14
    x[7]      packing[36]  122
    x[7]      packing[37]  62
    x[7]      packing[38]  196
    x[7]      packing[39]  188
    x[7]      packing[41]  121
    x[7]      packing[43]  51
    x[7]      packing[44]  181
    x[7]      packing[45]  69
    x[7]      packing[46]  148
    x[7]      packing[47]  85
    x[7]      packing[48]  96
    x[7]      packing[49]  137
    x[7]      R56       1
    x[8]      OBJ       180
    x[8]      packing[0]  132
    x[8]      packing[1]  129
    x[8]      packing[2]  159
    x[8]      packing[4]  76
    x[8]      packing[5]  161
    x[8]      packing[6]  154
    x[8]      packing[7]  69
    x[8]      packing[8]  40
    x[8]      packing[9]  117
    x[8]      packing[10]  74
    x[8]      packing[11]  152
    x[8]      packing[12]  145
    x[8]      packing[13]  136
    x[8]      packing[14]  20
    x[8]      packing[16]  121
    x[8]      packing[17]  173
    x[8]      packing[18]  116
    x[8]      packing[20]  176
    x[8]      packing[22]  91
    x[8]      packing[24]  145
    x[8]      packing[25]  147
    x[8]      packing[26]  189
    x[8]      packing[27]  118
    x[8]      packing[28]  170
    x[8]      packing[29]  98
    x[8]      packing[30]  181
    x[8]      packing[33]  148
    x[8]      packing[34]  180
    x[8]      packing[38]  113
    x[8]      packing[39]  95
    x[8]      packing[42]  5
    x[8]      packing[43]  127
    x[8]      packing[44]  13
    x[8]      packing[45]  170
    x[8]      packing[46]  60
    x[8]      packing[47]  43
    x[8]      packing[49]  189
    x[8]      R56       1
    x[9]      OBJ       200
    x[9]      packing[1]  57
    x[9]      packing[2]  136
    x[9]      packing[3]  175
    x[9]      packing[7]  194
    x[9]      packing[8]  172
    x[9]      packing[9]  32
    x[9]      packing[10]  108
    x[9]      packing[12]  175
    x[9]      packing[13]  2
    x[9]      packing[14]  161
    x[9]      packing[15]  111
    x[9]      packing[16]  60
    x[9]      packing[19]  91
    x[9]      packing[20]  106
    x[9]      packing[22]  85
    x[9]      packing[23]  114
    x[9]      packing[24]  185
    x[9]      packing[26]  180
    x[9]      packing[27]  139
    x[9]      packing[28]  74
    x[9]      packing[30]  37
    x[9]      packing[32]  101
    x[9]      packing[33]  12
    x[9]      packing[34]  15
    x[9]      packing[35]  9
    x[9]      packing[36]  134
    x[9]      packing[37]  84
    x[9]      packing[38]  134
    x[9]      packing[39]  23
    x[9]      packing[40]  62
    x[9]      packing[41]  157
    x[9]      packing[43]  43
    x[9]      packing[45]  58
    x[9]      packing[46]  79
    x[9]      R56       1
    x[10]     OBJ       39
    x[10]     packing[0]  86
    x[10]     packing[2]  191
    x[10]     packing[3]  40
    x[10]     packing[6]  165
    x[10]     packing[7]  136
    x[10]     packing[8]  44
    x[10]     packing[9]  20
    x[10]     packing[10]  186
    x[10]     packing[11]  68
    x[10]     packing[12]  136
    x[10]     packing[14]  129
    x[10]     packing[16]  129
    x[10]     packing[17]  71
    x[10]     packing[19]  149
    x[10]     packing[20]  62
    x[10]     packing[21]  144
    x[10]     packing[22]  74
    x[10]     packing[23]  172
    x[10]     packing[25]  157
    x[10]     packing[26]  42
    x[10]     packing[30]  82
    x[10]     packing[31]  170
    x[10]     packing[33]  78
    x[10]     packing[34]  162
    x[10]     packing[36]  156
    x[10]     packing[37]  96
    x[10]     packing[38]  32
    x[10]     packing[39]  137
    x[10]     packing[40]  15
    x[10]     packing[41]  124
    x[10]     packing[42]  56
    x[10]     packing[43]  14
    x[10]     packing[45]  194
    x[10]     packing[48]  21
    x[10]     packing[49]  48
    x[11]     OBJ       93
    x[11]     packing[0]  101
    x[11]     packing[1]  24
    x[11]     packing[2]  41
    x[11]     packing[5]  133
    x[11]     packing[7]  4
    x[11]     packing[8]  9
    x[11]     packing[11]  53
    x[11]     packing[12]  31
    x[11]     packing[13]  189
    x[11]     packing[14]  54
    x[11]     packing[15]  14
    x[11]     packing[17]  198
    x[11]     packing[18]  75
    x[11]     packing[20]  118
    x[11]     packing[21]  102
    x[11]     packing[22]  106
    x[11]     packing[23]  73
    x[11]     packing[25]  28
    x[11]     packing[26]  143
    x[11]     packing[27]  42
    x[11]     packing[29]  50
    x[11]     packing[30]  67
    x[11]     packing[31]  170
    x[11]     packing[32]  2
    x[11]     packing[34]  124
    x[11]     packing[35]  13
    x[11]     packing[36]  111
    x[11]     packing[37]  5
    x[11]     packing[38]  45
    x[11]     packing[39]  150
    x[11]     packing[42]  71
    x[11]     packing[43]  184
    x[11]     packing[44]  5
    x[11]     packing[45]  189
    x[11]     packing[46]  88
    x[11]     packing[47]  154
    x[11]     packing[48]  189
    x[11]     packing[49]  66
    x[12]     OBJ       185
    x[12]     packing[0]  8
    x[12]     packing[2]  168
    x[12]     packing[3]  85
    x[12]     packing[5]  122
    x[12]     packing[6]  103
    x[12]     packing[7]  168
    x[12]     packing[8]  123
    x[12]     packing[9]  155
    x[12]     packing[11]  138
    x[12]     packing[12]  114
    x[12]     packing[14]  81
    x[12]     packing[15]  109
    x[12]     packing[17]  3
    x[12]     packing[18]  132
    x[12]     packing[23]  153
    x[12]     packing[25]  58
    x[12]     packing[26]  31
    x[12]     packing[29]  85
    x[12]     packing[30]  21
    x[12]     packing[33]  90
    x[12]     packing[34]  14
    x[12]     packing[36]  102
    x[12]     packing[37]  90
    x[12]     packing[38]  183
    x[12]     packing[40]  171
    x[12]     packing[41]  119
    x[12]     packing[42]  145
    x[12]     packing[43]  61
    x[12]     packing[44]  199
    x[12]     packing[45]  143
    x[12]     packing[46]  66
    x[12]     packing[48]  15
    x[12]     packing[49]  39
    x[12]     R56       1
    x[13]     OBJ       188
    x[13]     packing[0]  194
    x[13]     packing[2]  171
    x[13]     packing[4]  166
    x[13]     packing[6]  60
    x[13]     packing[7]  165
    x[13]     packing[8]  175
    x[13]     packing[9]  113
    x[13]     packing[10]  12
    x[13]     packing[11]  116
    x[13]     packing[12]  142
    x[13]     packing[13]  23
    x[13]     packing[14]  38
    x[13]     packing[15]  97
    x[13]     packing[17]  119
    x[13]     packing[18]  19
    x[13]     packing[19]  105
    x[13]     packing[20]  147
    x[13]     packing[21]  33
    x[13]     packing[22]  45
    x[13]     packing[23]  117
    x[13]     packing[24]  19
    x[13]     packing[29]  119
    x[13]     packing[30]  4
    x[13]     packing[32]  186
    x[13]     packing[33]  84
    x[13]     packing[34]  156
    x[13]     packing[35]  169
    x[13]     packing[36]  38
    x[13]     packing[37]  51
    x[13]     packing[38]  172
    x[13]     packing[39]  79
    x[13]     packing[40]  149
    x[13]     packing[42]  98
    x[13]     packing[43]  13
    x[13]     packing[44]  91
    x[13]     packing[45]  8
    x[13]     packing[48]  107
    x[13]     packing[49]  92
    x[13]     R56       1
    x[14]     OBJ       77
    x[14]     packing[0]  166
    x[14]     packing[2]  70
    x[14]     packing[6]  156
    x[14]     packing[7]  38
    x[14]     packing[8]  78
    x[14]     packing[9]  85
    x[14]     packing[10]  92
    x[14]     packing[11]  90
    x[14]     packing[12]  131
    x[14]     packing[13]  117
    x[14]     packing[15]  43
    x[14]     packing[17]  84
    x[14]     packing[18]  195
    x[14]     packing[19]  134
    x[14]     packing[20]  31
    x[14]     packing[21]  5
    x[14]     packing[23]  194
    x[14]     packing[24]  79
    x[14]     packing[26]  53
    x[14]     packing[28]  101
    x[14]     packing[29]  36
    x[14]     packing[30]  101
    x[14]     packing[31]  111
    x[14]     packing[32]  65
    x[14]     packing[33]  31
    x[14]     packing[34]  193
    x[14]     packing[35]  7
    x[14]     packing[36]  26
    x[14]     packing[37]  109
    x[14]     packing[39]  129
    x[14]     packing[40]  112
    x[14]     packing[41]  67
    x[14]     packing[42]  150
    x[14]     packing[44]  46
    x[14]     packing[45]  100
    x[14]     packing[46]  176
    x[14]     packing[47]  199
    x[14]     packing[48]  187
    x[15]     OBJ       1
    x[15]     packing[2]  196
    x[15]     packing[3]  52
    x[15]     packing[5]  152
    x[15]     packing[6]  54
    x[15]     packing[7]  145
    x[15]     packing[10]  3
    x[15]     packing[11]  157
    x[15]     packing[13]  15
    x[15]     packing[15]  116
    x[15]     packing[16]  91
    x[15]     packing[17]  168
    x[15]     packing[18]  138
    x[15]     packing[19]  197
    x[15]     packing[20]  11
    x[15]     packing[21]  15
    x[15]     packing[22]  138
    x[15]     packing[23]  93
    x[15]     packing[24]  13
    x[15]     packing[25]  40
    x[15]     packing[27]  149
    x[15]     packing[28]  26
    x[15]     packing[29]  75
    x[15]     packing[30]  176
    x[15]     packing[31]  149
    x[15]     packing[33]  185
    x[15]     packing[34]  73
    x[15]     packing[35]  49
    x[15]     packing[36]  182
    x[15]     packing[37]  121
    x[15]     packing[38]  36
    x[15]     packing[39]  127
    x[15]     packing[40]  44
    x[15]     packing[41]  129
    x[15]     packing[42]  69
    x[15]     packing[43]  60
    x[15]     packing[44]  46
    x[15]     packing[45]  169
    x[15]     packing[46]  58
    x[15]     packing[48]  141
    x[16]     OBJ       103
    x[16]     packing[0]  118
    x[16]     packing[1]  47
    x[16]     packing[2]  179
    x[16]     packing[3]  23
    x[16]     packing[4]  31
    x[16]     packing[5]  53
    x[16]     packing[6]  157
    x[16]     packing[8]  93
    x[16]     packing[9]  185
    x[16]     packing[10]  67
    x[16]     packing[11]  192
    x[16]     packing[12]  22
    x[16]     packing[13]  56
    x[16]     packing[14]  198
    x[16]     packing[15]  49
    x[16]     packing[16]  122
    x[16]     packing[17]  73
    x[16]     packing[18]  105
    x[16]     packing[20]  195
    x[16]     packing[21]  112
    x[16]     packing[22]  123
    x[16]     packing[23]  12
    x[16]     packing[24]  117
    x[16]     packing[25]  178
    x[16]     packing[29]  158
    x[16]     packing[30]  53
    x[16]     packing[31]  16
    x[16]     packing[32]  140
    x[16]     packing[34]  85
    x[16]     packing[35]  189
    x[16]     packing[36]  117
    x[16]     packing[37]  49
    x[16]     packing[38]  162
    x[16]     packing[39]  138
    x[16]     packing[40]  166
    x[16]     packing[41]  170
    x[16]     packing[42]  20
    x[16]     packing[43]  38
    x[16]     packing[44]  94
    x[16]     packing[45]  27
    x[16]     packing[47]  168
    x[16]     packing[49]  125
    x[16]     R56       1
    x[17]     OBJ       16
    x[17]     packing[0]  144
    x[17]     packing[2]  127
    x[17]     packing[3]  37
    x[17]     packing[4]  137
    x[17]     packing[5]  131
    x[17]     packing[6]  130
    x[17]     packing[8]  188
    x[17]     packing[10]  70
    x[17]     packing[11]  59
    x[17]     packing[12]  2
    x[17]     packing[14]  179
    x[17]     packing[15]  168
    x[17]     packing[16]  101
    x[17]     packing[17]  163
    x[17]     packing[19]  125
    x[17]     packing[20]  180
    x[17]     packing[21]  25
    x[17]     packing[22]  178
    x[17]     packing[23]  55
    x[17]     packing[25]  155
    x[17]     packing[26]  108
    x[17]     packing[27]  22
    x[17]     packing[28]  121
    x[17]     packing[30]  126
    x[17]     packing[31]  65
    x[17]     packing[33]  178
    x[17]     packing[34]  28
    x[17]     packing[35]  128
    x[17]     packing[37]  27
    x[17]     packing[38]  32
    x[17]     packing[39]  72
    x[17]     packing[40]  94
    x[17]     packing[42]  57
    x[17]     packing[45]  119
    x[17]     packing[46]  143
    x[17]     packing[47]  6
    x[17]     packing[49]  23
    x[18]     OBJ       73
    x[18]     packing[0]  75
    x[18]     packing[1]  75
    x[18]     packing[2]  23
    x[18]     packing[4]  196
    x[18]     packing[7]  148
    x[18]     packing[8]  178
    x[18]     packing[10]  104
    x[18]     packing[12]  135
    x[18]     packing[13]  134
    x[18]     packing[14]  96
    x[18]     packing[15]  18
    x[18]     packing[16]  24
    x[18]     packing[17]  60
    x[18]     packing[18]  173
    x[18]     packing[19]  111
    x[18]     packing[20]  29
    x[18]     packing[21]  197
    x[18]     packing[23]  47
    x[18]     packing[24]  187
    x[18]     packing[25]  77
    x[18]     packing[28]  105
    x[18]     packing[29]  130
    x[18]     packing[30]  64
    x[18]     packing[31]  143
    x[18]     packing[32]  190
    x[18]     packing[33]  67
    x[18]     packing[36]  162
    x[18]     packing[37]  80
    x[18]     packing[38]  27
    x[18]     packing[39]  188
    x[18]     packing[40]  40
    x[18]     packing[41]  163
    x[18]     packing[42]  196
    x[18]     packing[44]  102
    x[18]     packing[46]  170
    x[18]     packing[48]  132
    x[18]     packing[49]  20
    x[19]     OBJ       112
    x[19]     packing[2]  7
    x[19]     packing[3]  190
    x[19]     packing[4]  150
    x[19]     packing[5]  95
    x[19]     packing[6]  196
    x[19]     packing[7]  119
    x[19]     packing[9]  188
    x[19]     packing[11]  77
    x[19]     packing[13]  81
    x[19]     packing[15]  151
    x[19]     packing[17]  173
    x[19]     packing[19]  101
    x[19]     packing[20]  114
    x[19]     packing[21]  193
    x[19]     packing[23]  81
    x[19]     packing[24]  100
    x[19]     packing[26]  142
    x[19]     packing[27]  57
    x[19]     packing[28]  181
    x[19]     packing[29]  86
    x[19]     packing[31]  157
    x[19]     packing[32]  11
    x[19]     packing[33]  80
    x[19]     packing[34]  30
    x[19]     packing[35]  45
    x[19]     packing[36]  45
    x[19]     packing[37]  41
    x[19]     packing[38]  144
    x[19]     packing[40]  80
    x[19]     packing[41]  102
    x[19]     packing[42]  9
    x[19]     packing[44]  164
    x[19]     packing[45]  92
    x[19]     packing[46]  162
    x[19]     packing[47]  132
    x[19]     packing[48]  62
    x[19]     packing[49]  152
    x[20]     OBJ       66
    x[20]     packing[0]  135
    x[20]     packing[2]  187
    x[20]     packing[4]  157
    x[20]     packing[5]  72
    x[20]     packing[6]  26
    x[20]     packing[7]  147
    x[20]     packing[8]  99
    x[20]     packing[9]  53
    x[20]     packing[10]  154
    x[20]     packing[11]  35
    x[20]     packing[12]  81
    x[20]     packing[13]  98
    x[20]     packing[15]  149
    x[20]     packing[16]  185
    x[20]     packing[17]  96
    x[20]     packing[18]  51
    x[20]     packing[19]  94
    x[20]     packing[23]  12
    x[20]     packing[24]  151
    x[20]     packing[25]  80
    x[20]     packing[27]  70
    x[20]     packing[28]  15
    x[20]     packing[29]  138
    x[20]     packing[30]  180
    x[20]     packing[31]  105
    x[20]     packing[32]  35
    x[20]     packing[35]  26
    x[20]     packing[36]  26
    x[20]     packing[37]  41
    x[20]     packing[38]  130
    x[20]     packing[39]  118
    x[20]     packing[41]  18
    x[20]     packing[42]  155
    x[20]     packing[43]  94
    x[20]     packing[44]  120
    x[20]     packing[45]  77
    x[20]     packing[46]  172
    x[20]     packing[49]  67
    MARKER    'MARKER'                 'INTEND'
RHS
    RHS1      packing[0]  977
    RHS1      packing[1]  551
    RHS1      packing[2]  1202
    RHS1      packing[3]  487
    RHS1      packing[4]  667
    RHS1      packing[5]  568
    RHS1      packing[6]  803
    RHS1      packing[7]  829
    RHS1      packing[8]  825
    RHS1      packing[9]  707
    RHS1      packing[10]  727
    RHS1      packing[11]  704
    RHS1      packing[12]  827
    RHS1      packing[13]  680
    RHS1      packing[14]  706
    RHS1      packing[15]  739
    RHS1      packing[16]  529
    RHS1      packing[17]  861
    RHS1      packing[18]  680
    RHS1      packing[19]  932
    RHS1      packing[20]  849
    RHS1      packing[21]  792
    RHS1      packing[22]  686
    RHS1      packing[23]  833
    RHS1      packing[24]  785
    RHS1      packing[25]  906
    RHS1      packing[26]  649
    RHS1      packing[27]  472
    RHS1      packing[28]  529
    RHS1      packing[29]  626
    RHS1      packing[30]  931
    RHS1      packing[31]  693
    RHS1      packing[32]  593
    RHS1      packing[33]  602
    RHS1      packing[34]  860
    RHS1      packing[35]  662
    RHS1      packing[36]  759
    RHS1      packing[37]  528
    RHS1      packing[38]  942
    RHS1      packing[39]  862
    RHS1      packing[40]  648
    RHS1      packing[41]  873
    RHS1      packing[42]  702
    RHS1      packing[43]  451
    RHS1      packing[44]  697
    RHS1      packing[45]  847
    RHS1      packing[46]  891
    RHS1      packing[47]  634
    RHS1      packing[48]  850
    RHS1      packing[49]  847
    RHS1      R56       5
BOUNDS
 BV BND1      x[1]    
 BV BND1      x[2]    
 BV BND1      x[3]    
 BV BND1      x[4]    
 BV BND1      x[5]    
 BV BND1      x[6]    
 BV BND1      x[7]    
 BV BND1      x[8]    
 BV BND1      x[9]    
 BV BND1      x[10]   
 BV BND1      x[11]   
 BV BND1      x[12]   
 BV BND1      x[13]   
 BV BND1      x[14]   
 BV BND1      x[15]   
 BV BND1      x[16]   
 BV BND1      x[17]   
 BV BND1      x[18]   
 BV BND1      x[19]   
 BV BND1      x[20]   
ENDATA
